c
c Generated WCNF file
c
p wcnf 497 2388 66742
66742 32 0
66742 -33 1 0
66742 -33 2 0
66742 33 -1 -2 0
66742 -34 1 0
66742 -34 3 0
66742 34 -1 -3 0
66742 -35 1 0
66742 -35 4 0
66742 35 -1 -4 0
66742 -36 1 0
66742 -36 5 0
66742 36 -1 -5 0
66742 -37 1 0
66742 -37 6 0
66742 37 -1 -6 0
66742 -38 1 0
66742 -38 7 0
66742 38 -1 -7 0
66742 -39 1 0
66742 -39 8 0
66742 39 -1 -8 0
66742 -40 1 0
66742 -40 9 0
66742 40 -1 -9 0
66742 -41 1 0
66742 -41 10 0
66742 41 -1 -10 0
66742 -42 1 0
66742 -42 11 0
66742 42 -1 -11 0
66742 -43 1 0
66742 -43 12 0
66742 43 -1 -12 0
66742 -44 1 0
66742 -44 13 0
66742 44 -1 -13 0
66742 -45 1 0
66742 -45 14 0
66742 45 -1 -14 0
66742 -46 1 0
66742 -46 15 0
66742 46 -1 -15 0
66742 -47 1 0
66742 -47 16 0
66742 47 -1 -16 0
66742 -48 1 0
66742 -48 17 0
66742 48 -1 -17 0
66742 -49 1 0
66742 -49 18 0
66742 49 -1 -18 0
66742 -50 1 0
66742 -50 19 0
66742 50 -1 -19 0
66742 -51 1 0
66742 -51 20 0
66742 51 -1 -20 0
66742 -52 1 0
66742 -52 21 0
66742 52 -1 -21 0
66742 -53 1 0
66742 -53 22 0
66742 53 -1 -22 0
66742 -54 1 0
66742 -54 23 0
66742 54 -1 -23 0
66742 -55 1 0
66742 -55 24 0
66742 55 -1 -24 0
66742 -56 1 0
66742 -56 25 0
66742 56 -1 -25 0
66742 -57 1 0
66742 -57 26 0
66742 57 -1 -26 0
66742 -58 1 0
66742 -58 27 0
66742 58 -1 -27 0
66742 -59 1 0
66742 -59 28 0
66742 59 -1 -28 0
66742 -60 1 0
66742 -60 29 0
66742 60 -1 -29 0
66742 -61 1 0
66742 -61 30 0
66742 61 -1 -30 0
66742 -62 1 0
66742 -62 31 0
66742 62 -1 -31 0
66742 -63 2 0
66742 -63 3 0
66742 63 -2 -3 0
66742 -64 2 0
66742 -64 4 0
66742 64 -2 -4 0
66742 -65 2 0
66742 -65 5 0
66742 65 -2 -5 0
66742 -66 2 0
66742 -66 6 0
66742 66 -2 -6 0
66742 -67 2 0
66742 -67 7 0
66742 67 -2 -7 0
66742 -68 2 0
66742 -68 8 0
66742 68 -2 -8 0
66742 -69 2 0
66742 -69 9 0
66742 69 -2 -9 0
66742 -70 2 0
66742 -70 10 0
66742 70 -2 -10 0
66742 -71 2 0
66742 -71 11 0
66742 71 -2 -11 0
66742 -72 2 0
66742 -72 12 0
66742 72 -2 -12 0
66742 -73 2 0
66742 -73 13 0
66742 73 -2 -13 0
66742 -74 2 0
66742 -74 14 0
66742 74 -2 -14 0
66742 -75 2 0
66742 -75 15 0
66742 75 -2 -15 0
66742 -76 2 0
66742 -76 16 0
66742 76 -2 -16 0
66742 -77 2 0
66742 -77 17 0
66742 77 -2 -17 0
66742 -78 2 0
66742 -78 18 0
66742 78 -2 -18 0
66742 -79 2 0
66742 -79 19 0
66742 79 -2 -19 0
66742 -80 2 0
66742 -80 20 0
66742 80 -2 -20 0
66742 -81 2 0
66742 -81 21 0
66742 81 -2 -21 0
66742 -82 2 0
66742 -82 22 0
66742 82 -2 -22 0
66742 -83 2 0
66742 -83 23 0
66742 83 -2 -23 0
66742 -84 2 0
66742 -84 24 0
66742 84 -2 -24 0
66742 -85 2 0
66742 -85 25 0
66742 85 -2 -25 0
66742 -86 2 0
66742 -86 26 0
66742 86 -2 -26 0
66742 -87 2 0
66742 -87 27 0
66742 87 -2 -27 0
66742 -88 2 0
66742 -88 28 0
66742 88 -2 -28 0
66742 -89 2 0
66742 -89 29 0
66742 89 -2 -29 0
66742 -90 2 0
66742 -90 30 0
66742 90 -2 -30 0
66742 -91 2 0
66742 -91 31 0
66742 91 -2 -31 0
66742 -92 3 0
66742 -92 4 0
66742 92 -3 -4 0
66742 -93 3 0
66742 -93 5 0
66742 93 -3 -5 0
66742 -94 3 0
66742 -94 6 0
66742 94 -3 -6 0
66742 -95 3 0
66742 -95 7 0
66742 95 -3 -7 0
66742 -96 3 0
66742 -96 8 0
66742 96 -3 -8 0
66742 -97 3 0
66742 -97 9 0
66742 97 -3 -9 0
66742 -98 3 0
66742 -98 10 0
66742 98 -3 -10 0
66742 -99 3 0
66742 -99 11 0
66742 99 -3 -11 0
66742 -100 3 0
66742 -100 12 0
66742 100 -3 -12 0
66742 -101 3 0
66742 -101 13 0
66742 101 -3 -13 0
66742 -102 3 0
66742 -102 14 0
66742 102 -3 -14 0
66742 -103 3 0
66742 -103 15 0
66742 103 -3 -15 0
66742 -104 3 0
66742 -104 16 0
66742 104 -3 -16 0
66742 -105 3 0
66742 -105 17 0
66742 105 -3 -17 0
66742 -106 3 0
66742 -106 18 0
66742 106 -3 -18 0
66742 -107 3 0
66742 -107 19 0
66742 107 -3 -19 0
66742 -108 3 0
66742 -108 20 0
66742 108 -3 -20 0
66742 -109 3 0
66742 -109 21 0
66742 109 -3 -21 0
66742 -110 3 0
66742 -110 22 0
66742 110 -3 -22 0
66742 -111 3 0
66742 -111 23 0
66742 111 -3 -23 0
66742 -112 3 0
66742 -112 24 0
66742 112 -3 -24 0
66742 -113 3 0
66742 -113 25 0
66742 113 -3 -25 0
66742 -114 3 0
66742 -114 26 0
66742 114 -3 -26 0
66742 -115 3 0
66742 -115 27 0
66742 115 -3 -27 0
66742 -116 3 0
66742 -116 28 0
66742 116 -3 -28 0
66742 -117 3 0
66742 -117 29 0
66742 117 -3 -29 0
66742 -118 3 0
66742 -118 30 0
66742 118 -3 -30 0
66742 -119 3 0
66742 -119 31 0
66742 119 -3 -31 0
66742 -120 4 0
66742 -120 5 0
66742 120 -4 -5 0
66742 -121 4 0
66742 -121 6 0
66742 121 -4 -6 0
66742 -122 4 0
66742 -122 7 0
66742 122 -4 -7 0
66742 -123 4 0
66742 -123 8 0
66742 123 -4 -8 0
66742 -124 4 0
66742 -124 9 0
66742 124 -4 -9 0
66742 -125 4 0
66742 -125 10 0
66742 125 -4 -10 0
66742 -126 4 0
66742 -126 11 0
66742 126 -4 -11 0
66742 -127 4 0
66742 -127 12 0
66742 127 -4 -12 0
66742 -128 4 0
66742 -128 13 0
66742 128 -4 -13 0
66742 -129 4 0
66742 -129 14 0
66742 129 -4 -14 0
66742 -130 4 0
66742 -130 15 0
66742 130 -4 -15 0
66742 -131 4 0
66742 -131 16 0
66742 131 -4 -16 0
66742 -132 4 0
66742 -132 17 0
66742 132 -4 -17 0
66742 -133 4 0
66742 -133 18 0
66742 133 -4 -18 0
66742 -134 4 0
66742 -134 19 0
66742 134 -4 -19 0
66742 -135 4 0
66742 -135 20 0
66742 135 -4 -20 0
66742 -136 4 0
66742 -136 21 0
66742 136 -4 -21 0
66742 -137 4 0
66742 -137 22 0
66742 137 -4 -22 0
66742 -138 4 0
66742 -138 23 0
66742 138 -4 -23 0
66742 -139 4 0
66742 -139 24 0
66742 139 -4 -24 0
66742 -140 4 0
66742 -140 25 0
66742 140 -4 -25 0
66742 -141 4 0
66742 -141 26 0
66742 141 -4 -26 0
66742 -142 4 0
66742 -142 27 0
66742 142 -4 -27 0
66742 -143 4 0
66742 -143 28 0
66742 143 -4 -28 0
66742 -144 4 0
66742 -144 29 0
66742 144 -4 -29 0
66742 -145 4 0
66742 -145 30 0
66742 145 -4 -30 0
66742 -146 4 0
66742 -146 31 0
66742 146 -4 -31 0
66742 -147 5 0
66742 -147 6 0
66742 147 -5 -6 0
66742 -148 5 0
66742 -148 7 0
66742 148 -5 -7 0
66742 -149 5 0
66742 -149 8 0
66742 149 -5 -8 0
66742 -150 5 0
66742 -150 9 0
66742 150 -5 -9 0
66742 -151 5 0
66742 -151 10 0
66742 151 -5 -10 0
66742 -152 5 0
66742 -152 11 0
66742 152 -5 -11 0
66742 -153 5 0
66742 -153 12 0
66742 153 -5 -12 0
66742 -154 5 0
66742 -154 13 0
66742 154 -5 -13 0
66742 -155 5 0
66742 -155 14 0
66742 155 -5 -14 0
66742 -156 5 0
66742 -156 15 0
66742 156 -5 -15 0
66742 -157 5 0
66742 -157 16 0
66742 157 -5 -16 0
66742 -158 5 0
66742 -158 17 0
66742 158 -5 -17 0
66742 -159 5 0
66742 -159 18 0
66742 159 -5 -18 0
66742 -160 5 0
66742 -160 19 0
66742 160 -5 -19 0
66742 -161 5 0
66742 -161 20 0
66742 161 -5 -20 0
66742 -162 5 0
66742 -162 21 0
66742 162 -5 -21 0
66742 -163 5 0
66742 -163 22 0
66742 163 -5 -22 0
66742 -164 5 0
66742 -164 23 0
66742 164 -5 -23 0
66742 -165 5 0
66742 -165 24 0
66742 165 -5 -24 0
66742 -166 5 0
66742 -166 25 0
66742 166 -5 -25 0
66742 -167 5 0
66742 -167 26 0
66742 167 -5 -26 0
66742 -168 5 0
66742 -168 27 0
66742 168 -5 -27 0
66742 -169 5 0
66742 -169 28 0
66742 169 -5 -28 0
66742 -170 5 0
66742 -170 29 0
66742 170 -5 -29 0
66742 -171 5 0
66742 -171 30 0
66742 171 -5 -30 0
66742 -172 5 0
66742 -172 31 0
66742 172 -5 -31 0
66742 -173 6 0
66742 -173 7 0
66742 173 -6 -7 0
66742 -174 6 0
66742 -174 8 0
66742 174 -6 -8 0
66742 -175 6 0
66742 -175 9 0
66742 175 -6 -9 0
66742 -176 6 0
66742 -176 10 0
66742 176 -6 -10 0
66742 -177 6 0
66742 -177 11 0
66742 177 -6 -11 0
66742 -178 6 0
66742 -178 12 0
66742 178 -6 -12 0
66742 -179 6 0
66742 -179 13 0
66742 179 -6 -13 0
66742 -180 6 0
66742 -180 14 0
66742 180 -6 -14 0
66742 -181 6 0
66742 -181 15 0
66742 181 -6 -15 0
66742 -182 6 0
66742 -182 16 0
66742 182 -6 -16 0
66742 -183 6 0
66742 -183 17 0
66742 183 -6 -17 0
66742 -184 6 0
66742 -184 18 0
66742 184 -6 -18 0
66742 -185 6 0
66742 -185 19 0
66742 185 -6 -19 0
66742 -186 6 0
66742 -186 20 0
66742 186 -6 -20 0
66742 -187 6 0
66742 -187 21 0
66742 187 -6 -21 0
66742 -188 6 0
66742 -188 22 0
66742 188 -6 -22 0
66742 -189 6 0
66742 -189 23 0
66742 189 -6 -23 0
66742 -190 6 0
66742 -190 24 0
66742 190 -6 -24 0
66742 -191 6 0
66742 -191 25 0
66742 191 -6 -25 0
66742 -192 6 0
66742 -192 26 0
66742 192 -6 -26 0
66742 -193 6 0
66742 -193 27 0
66742 193 -6 -27 0
66742 -194 6 0
66742 -194 28 0
66742 194 -6 -28 0
66742 -195 6 0
66742 -195 29 0
66742 195 -6 -29 0
66742 -196 6 0
66742 -196 30 0
66742 196 -6 -30 0
66742 -197 6 0
66742 -197 31 0
66742 197 -6 -31 0
66742 -198 7 0
66742 -198 8 0
66742 198 -7 -8 0
66742 -199 7 0
66742 -199 9 0
66742 199 -7 -9 0
66742 -200 7 0
66742 -200 10 0
66742 200 -7 -10 0
66742 -201 7 0
66742 -201 11 0
66742 201 -7 -11 0
66742 -202 7 0
66742 -202 12 0
66742 202 -7 -12 0
66742 -203 7 0
66742 -203 13 0
66742 203 -7 -13 0
66742 -204 7 0
66742 -204 14 0
66742 204 -7 -14 0
66742 -205 7 0
66742 -205 15 0
66742 205 -7 -15 0
66742 -206 7 0
66742 -206 16 0
66742 206 -7 -16 0
66742 -207 7 0
66742 -207 17 0
66742 207 -7 -17 0
66742 -208 7 0
66742 -208 18 0
66742 208 -7 -18 0
66742 -209 7 0
66742 -209 19 0
66742 209 -7 -19 0
66742 -210 7 0
66742 -210 20 0
66742 210 -7 -20 0
66742 -211 7 0
66742 -211 21 0
66742 211 -7 -21 0
66742 -212 7 0
66742 -212 22 0
66742 212 -7 -22 0
66742 -213 7 0
66742 -213 23 0
66742 213 -7 -23 0
66742 -214 7 0
66742 -214 24 0
66742 214 -7 -24 0
66742 -215 7 0
66742 -215 25 0
66742 215 -7 -25 0
66742 -216 7 0
66742 -216 26 0
66742 216 -7 -26 0
66742 -217 7 0
66742 -217 27 0
66742 217 -7 -27 0
66742 -218 7 0
66742 -218 28 0
66742 218 -7 -28 0
66742 -219 7 0
66742 -219 29 0
66742 219 -7 -29 0
66742 -220 7 0
66742 -220 30 0
66742 220 -7 -30 0
66742 -221 7 0
66742 -221 31 0
66742 221 -7 -31 0
66742 -222 8 0
66742 -222 9 0
66742 222 -8 -9 0
66742 -223 8 0
66742 -223 10 0
66742 223 -8 -10 0
66742 -224 8 0
66742 -224 11 0
66742 224 -8 -11 0
66742 -225 8 0
66742 -225 12 0
66742 225 -8 -12 0
66742 -226 8 0
66742 -226 13 0
66742 226 -8 -13 0
66742 -227 8 0
66742 -227 14 0
66742 227 -8 -14 0
66742 -228 8 0
66742 -228 15 0
66742 228 -8 -15 0
66742 -229 8 0
66742 -229 16 0
66742 229 -8 -16 0
66742 -230 8 0
66742 -230 17 0
66742 230 -8 -17 0
66742 -231 8 0
66742 -231 18 0
66742 231 -8 -18 0
66742 -232 8 0
66742 -232 19 0
66742 232 -8 -19 0
66742 -233 8 0
66742 -233 20 0
66742 233 -8 -20 0
66742 -234 8 0
66742 -234 21 0
66742 234 -8 -21 0
66742 -235 8 0
66742 -235 22 0
66742 235 -8 -22 0
66742 -236 8 0
66742 -236 23 0
66742 236 -8 -23 0
66742 -237 8 0
66742 -237 24 0
66742 237 -8 -24 0
66742 -238 8 0
66742 -238 25 0
66742 238 -8 -25 0
66742 -239 8 0
66742 -239 26 0
66742 239 -8 -26 0
66742 -240 8 0
66742 -240 27 0
66742 240 -8 -27 0
66742 -241 8 0
66742 -241 28 0
66742 241 -8 -28 0
66742 -242 8 0
66742 -242 29 0
66742 242 -8 -29 0
66742 -243 8 0
66742 -243 30 0
66742 243 -8 -30 0
66742 -244 8 0
66742 -244 31 0
66742 244 -8 -31 0
66742 -245 9 0
66742 -245 10 0
66742 245 -9 -10 0
66742 -246 9 0
66742 -246 11 0
66742 246 -9 -11 0
66742 -247 9 0
66742 -247 12 0
66742 247 -9 -12 0
66742 -248 9 0
66742 -248 13 0
66742 248 -9 -13 0
66742 -249 9 0
66742 -249 14 0
66742 249 -9 -14 0
66742 -250 9 0
66742 -250 15 0
66742 250 -9 -15 0
66742 -251 9 0
66742 -251 16 0
66742 251 -9 -16 0
66742 -252 9 0
66742 -252 17 0
66742 252 -9 -17 0
66742 -253 9 0
66742 -253 18 0
66742 253 -9 -18 0
66742 -254 9 0
66742 -254 19 0
66742 254 -9 -19 0
66742 -255 9 0
66742 -255 20 0
66742 255 -9 -20 0
66742 -256 9 0
66742 -256 21 0
66742 256 -9 -21 0
66742 -257 9 0
66742 -257 22 0
66742 257 -9 -22 0
66742 -258 9 0
66742 -258 23 0
66742 258 -9 -23 0
66742 -259 9 0
66742 -259 24 0
66742 259 -9 -24 0
66742 -260 9 0
66742 -260 25 0
66742 260 -9 -25 0
66742 -261 9 0
66742 -261 26 0
66742 261 -9 -26 0
66742 -262 9 0
66742 -262 27 0
66742 262 -9 -27 0
66742 -263 9 0
66742 -263 28 0
66742 263 -9 -28 0
66742 -264 9 0
66742 -264 29 0
66742 264 -9 -29 0
66742 -265 9 0
66742 -265 30 0
66742 265 -9 -30 0
66742 -266 9 0
66742 -266 31 0
66742 266 -9 -31 0
66742 -267 10 0
66742 -267 11 0
66742 267 -10 -11 0
66742 -268 10 0
66742 -268 12 0
66742 268 -10 -12 0
66742 -269 10 0
66742 -269 13 0
66742 269 -10 -13 0
66742 -270 10 0
66742 -270 14 0
66742 270 -10 -14 0
66742 -271 10 0
66742 -271 15 0
66742 271 -10 -15 0
66742 -272 10 0
66742 -272 16 0
66742 272 -10 -16 0
66742 -273 10 0
66742 -273 17 0
66742 273 -10 -17 0
66742 -274 10 0
66742 -274 18 0
66742 274 -10 -18 0
66742 -275 10 0
66742 -275 19 0
66742 275 -10 -19 0
66742 -276 10 0
66742 -276 20 0
66742 276 -10 -20 0
66742 -277 10 0
66742 -277 21 0
66742 277 -10 -21 0
66742 -278 10 0
66742 -278 22 0
66742 278 -10 -22 0
66742 -279 10 0
66742 -279 23 0
66742 279 -10 -23 0
66742 -280 10 0
66742 -280 24 0
66742 280 -10 -24 0
66742 -281 10 0
66742 -281 25 0
66742 281 -10 -25 0
66742 -282 10 0
66742 -282 26 0
66742 282 -10 -26 0
66742 -283 10 0
66742 -283 27 0
66742 283 -10 -27 0
66742 -284 10 0
66742 -284 28 0
66742 284 -10 -28 0
66742 -285 10 0
66742 -285 29 0
66742 285 -10 -29 0
66742 -286 10 0
66742 -286 30 0
66742 286 -10 -30 0
66742 -287 10 0
66742 -287 31 0
66742 287 -10 -31 0
66742 -288 11 0
66742 -288 12 0
66742 288 -11 -12 0
66742 -289 11 0
66742 -289 13 0
66742 289 -11 -13 0
66742 -290 11 0
66742 -290 14 0
66742 290 -11 -14 0
66742 -291 11 0
66742 -291 15 0
66742 291 -11 -15 0
66742 -292 11 0
66742 -292 16 0
66742 292 -11 -16 0
66742 -293 11 0
66742 -293 17 0
66742 293 -11 -17 0
66742 -294 11 0
66742 -294 18 0
66742 294 -11 -18 0
66742 -295 11 0
66742 -295 19 0
66742 295 -11 -19 0
66742 -296 11 0
66742 -296 20 0
66742 296 -11 -20 0
66742 -297 11 0
66742 -297 21 0
66742 297 -11 -21 0
66742 -298 11 0
66742 -298 22 0
66742 298 -11 -22 0
66742 -299 11 0
66742 -299 23 0
66742 299 -11 -23 0
66742 -300 11 0
66742 -300 24 0
66742 300 -11 -24 0
66742 -301 11 0
66742 -301 25 0
66742 301 -11 -25 0
66742 -302 11 0
66742 -302 26 0
66742 302 -11 -26 0
66742 -303 11 0
66742 -303 27 0
66742 303 -11 -27 0
66742 -304 11 0
66742 -304 28 0
66742 304 -11 -28 0
66742 -305 11 0
66742 -305 29 0
66742 305 -11 -29 0
66742 -306 11 0
66742 -306 30 0
66742 306 -11 -30 0
66742 -307 11 0
66742 -307 31 0
66742 307 -11 -31 0
66742 -308 12 0
66742 -308 13 0
66742 308 -12 -13 0
66742 -309 12 0
66742 -309 14 0
66742 309 -12 -14 0
66742 -310 12 0
66742 -310 15 0
66742 310 -12 -15 0
66742 -311 12 0
66742 -311 16 0
66742 311 -12 -16 0
66742 -312 12 0
66742 -312 17 0
66742 312 -12 -17 0
66742 -313 12 0
66742 -313 18 0
66742 313 -12 -18 0
66742 -314 12 0
66742 -314 19 0
66742 314 -12 -19 0
66742 -315 12 0
66742 -315 20 0
66742 315 -12 -20 0
66742 -316 12 0
66742 -316 21 0
66742 316 -12 -21 0
66742 -317 12 0
66742 -317 22 0
66742 317 -12 -22 0
66742 -318 12 0
66742 -318 23 0
66742 318 -12 -23 0
66742 -319 12 0
66742 -319 24 0
66742 319 -12 -24 0
66742 -320 12 0
66742 -320 25 0
66742 320 -12 -25 0
66742 -321 12 0
66742 -321 26 0
66742 321 -12 -26 0
66742 -322 12 0
66742 -322 27 0
66742 322 -12 -27 0
66742 -323 12 0
66742 -323 28 0
66742 323 -12 -28 0
66742 -324 12 0
66742 -324 29 0
66742 324 -12 -29 0
66742 -325 12 0
66742 -325 30 0
66742 325 -12 -30 0
66742 -326 12 0
66742 -326 31 0
66742 326 -12 -31 0
66742 -327 13 0
66742 -327 14 0
66742 327 -13 -14 0
66742 -328 13 0
66742 -328 15 0
66742 328 -13 -15 0
66742 -329 13 0
66742 -329 16 0
66742 329 -13 -16 0
66742 -330 13 0
66742 -330 17 0
66742 330 -13 -17 0
66742 -331 13 0
66742 -331 18 0
66742 331 -13 -18 0
66742 -332 13 0
66742 -332 19 0
66742 332 -13 -19 0
66742 -333 13 0
66742 -333 20 0
66742 333 -13 -20 0
66742 -334 13 0
66742 -334 21 0
66742 334 -13 -21 0
66742 -335 13 0
66742 -335 22 0
66742 335 -13 -22 0
66742 -336 13 0
66742 -336 23 0
66742 336 -13 -23 0
66742 -337 13 0
66742 -337 24 0
66742 337 -13 -24 0
66742 -338 13 0
66742 -338 25 0
66742 338 -13 -25 0
66742 -339 13 0
66742 -339 26 0
66742 339 -13 -26 0
66742 -340 13 0
66742 -340 27 0
66742 340 -13 -27 0
66742 -341 13 0
66742 -341 28 0
66742 341 -13 -28 0
66742 -342 13 0
66742 -342 29 0
66742 342 -13 -29 0
66742 -343 13 0
66742 -343 30 0
66742 343 -13 -30 0
66742 -344 13 0
66742 -344 31 0
66742 344 -13 -31 0
66742 -345 14 0
66742 -345 15 0
66742 345 -14 -15 0
66742 -346 14 0
66742 -346 16 0
66742 346 -14 -16 0
66742 -347 14 0
66742 -347 17 0
66742 347 -14 -17 0
66742 -348 14 0
66742 -348 18 0
66742 348 -14 -18 0
66742 -349 14 0
66742 -349 19 0
66742 349 -14 -19 0
66742 -350 14 0
66742 -350 20 0
66742 350 -14 -20 0
66742 -351 14 0
66742 -351 21 0
66742 351 -14 -21 0
66742 -352 14 0
66742 -352 22 0
66742 352 -14 -22 0
66742 -353 14 0
66742 -353 23 0
66742 353 -14 -23 0
66742 -354 14 0
66742 -354 24 0
66742 354 -14 -24 0
66742 -355 14 0
66742 -355 25 0
66742 355 -14 -25 0
66742 -356 14 0
66742 -356 26 0
66742 356 -14 -26 0
66742 -357 14 0
66742 -357 27 0
66742 357 -14 -27 0
66742 -358 14 0
66742 -358 28 0
66742 358 -14 -28 0
66742 -359 14 0
66742 -359 29 0
66742 359 -14 -29 0
66742 -360 14 0
66742 -360 30 0
66742 360 -14 -30 0
66742 -361 14 0
66742 -361 31 0
66742 361 -14 -31 0
66742 -362 15 0
66742 -362 16 0
66742 362 -15 -16 0
66742 -363 15 0
66742 -363 17 0
66742 363 -15 -17 0
66742 -364 15 0
66742 -364 18 0
66742 364 -15 -18 0
66742 -365 15 0
66742 -365 19 0
66742 365 -15 -19 0
66742 -366 15 0
66742 -366 20 0
66742 366 -15 -20 0
66742 -367 15 0
66742 -367 21 0
66742 367 -15 -21 0
66742 -368 15 0
66742 -368 22 0
66742 368 -15 -22 0
66742 -369 15 0
66742 -369 23 0
66742 369 -15 -23 0
66742 -370 15 0
66742 -370 24 0
66742 370 -15 -24 0
66742 -371 15 0
66742 -371 25 0
66742 371 -15 -25 0
66742 -372 15 0
66742 -372 26 0
66742 372 -15 -26 0
66742 -373 15 0
66742 -373 27 0
66742 373 -15 -27 0
66742 -374 15 0
66742 -374 28 0
66742 374 -15 -28 0
66742 -375 15 0
66742 -375 29 0
66742 375 -15 -29 0
66742 -376 15 0
66742 -376 30 0
66742 376 -15 -30 0
66742 -377 15 0
66742 -377 31 0
66742 377 -15 -31 0
66742 -378 16 0
66742 -378 17 0
66742 378 -16 -17 0
66742 -379 16 0
66742 -379 18 0
66742 379 -16 -18 0
66742 -380 16 0
66742 -380 19 0
66742 380 -16 -19 0
66742 -381 16 0
66742 -381 20 0
66742 381 -16 -20 0
66742 -382 16 0
66742 -382 21 0
66742 382 -16 -21 0
66742 -383 16 0
66742 -383 22 0
66742 383 -16 -22 0
66742 -384 16 0
66742 -384 23 0
66742 384 -16 -23 0
66742 -385 16 0
66742 -385 24 0
66742 385 -16 -24 0
66742 -386 16 0
66742 -386 25 0
66742 386 -16 -25 0
66742 -387 16 0
66742 -387 26 0
66742 387 -16 -26 0
66742 -388 16 0
66742 -388 27 0
66742 388 -16 -27 0
66742 -389 16 0
66742 -389 28 0
66742 389 -16 -28 0
66742 -390 16 0
66742 -390 29 0
66742 390 -16 -29 0
66742 -391 16 0
66742 -391 30 0
66742 391 -16 -30 0
66742 -392 16 0
66742 -392 31 0
66742 392 -16 -31 0
66742 -393 17 0
66742 -393 18 0
66742 393 -17 -18 0
66742 -394 17 0
66742 -394 19 0
66742 394 -17 -19 0
66742 -395 17 0
66742 -395 20 0
66742 395 -17 -20 0
66742 -396 17 0
66742 -396 21 0
66742 396 -17 -21 0
66742 -397 17 0
66742 -397 22 0
66742 397 -17 -22 0
66742 -398 17 0
66742 -398 23 0
66742 398 -17 -23 0
66742 -399 17 0
66742 -399 24 0
66742 399 -17 -24 0
66742 -400 17 0
66742 -400 25 0
66742 400 -17 -25 0
66742 -401 17 0
66742 -401 26 0
66742 401 -17 -26 0
66742 -402 17 0
66742 -402 27 0
66742 402 -17 -27 0
66742 -403 17 0
66742 -403 28 0
66742 403 -17 -28 0
66742 -404 17 0
66742 -404 29 0
66742 404 -17 -29 0
66742 -405 17 0
66742 -405 30 0
66742 405 -17 -30 0
66742 -406 17 0
66742 -406 31 0
66742 406 -17 -31 0
66742 -407 18 0
66742 -407 19 0
66742 407 -18 -19 0
66742 -408 18 0
66742 -408 20 0
66742 408 -18 -20 0
66742 -409 18 0
66742 -409 21 0
66742 409 -18 -21 0
66742 -410 18 0
66742 -410 22 0
66742 410 -18 -22 0
66742 -411 18 0
66742 -411 23 0
66742 411 -18 -23 0
66742 -412 18 0
66742 -412 24 0
66742 412 -18 -24 0
66742 -413 18 0
66742 -413 25 0
66742 413 -18 -25 0
66742 -414 18 0
66742 -414 26 0
66742 414 -18 -26 0
66742 -415 18 0
66742 -415 27 0
66742 415 -18 -27 0
66742 -416 18 0
66742 -416 28 0
66742 416 -18 -28 0
66742 -417 18 0
66742 -417 29 0
66742 417 -18 -29 0
66742 -418 18 0
66742 -418 30 0
66742 418 -18 -30 0
66742 -419 18 0
66742 -419 31 0
66742 419 -18 -31 0
66742 -420 19 0
66742 -420 20 0
66742 420 -19 -20 0
66742 -421 19 0
66742 -421 21 0
66742 421 -19 -21 0
66742 -422 19 0
66742 -422 22 0
66742 422 -19 -22 0
66742 -423 19 0
66742 -423 23 0
66742 423 -19 -23 0
66742 -424 19 0
66742 -424 24 0
66742 424 -19 -24 0
66742 -425 19 0
66742 -425 25 0
66742 425 -19 -25 0
66742 -426 19 0
66742 -426 26 0
66742 426 -19 -26 0
66742 -427 19 0
66742 -427 27 0
66742 427 -19 -27 0
66742 -428 19 0
66742 -428 28 0
66742 428 -19 -28 0
66742 -429 19 0
66742 -429 29 0
66742 429 -19 -29 0
66742 -430 19 0
66742 -430 30 0
66742 430 -19 -30 0
66742 -431 19 0
66742 -431 31 0
66742 431 -19 -31 0
66742 -432 20 0
66742 -432 21 0
66742 432 -20 -21 0
66742 -433 20 0
66742 -433 22 0
66742 433 -20 -22 0
66742 -434 20 0
66742 -434 23 0
66742 434 -20 -23 0
66742 -435 20 0
66742 -435 24 0
66742 435 -20 -24 0
66742 -436 20 0
66742 -436 25 0
66742 436 -20 -25 0
66742 -437 20 0
66742 -437 26 0
66742 437 -20 -26 0
66742 -438 20 0
66742 -438 27 0
66742 438 -20 -27 0
66742 -439 20 0
66742 -439 28 0
66742 439 -20 -28 0
66742 -440 20 0
66742 -440 29 0
66742 440 -20 -29 0
66742 -441 20 0
66742 -441 30 0
66742 441 -20 -30 0
66742 -442 20 0
66742 -442 31 0
66742 442 -20 -31 0
66742 -443 21 0
66742 -443 22 0
66742 443 -21 -22 0
66742 -444 21 0
66742 -444 23 0
66742 444 -21 -23 0
66742 -445 21 0
66742 -445 24 0
66742 445 -21 -24 0
66742 -446 21 0
66742 -446 25 0
66742 446 -21 -25 0
66742 -447 21 0
66742 -447 26 0
66742 447 -21 -26 0
66742 -448 21 0
66742 -448 27 0
66742 448 -21 -27 0
66742 -449 21 0
66742 -449 28 0
66742 449 -21 -28 0
66742 -450 21 0
66742 -450 29 0
66742 450 -21 -29 0
66742 -451 21 0
66742 -451 30 0
66742 451 -21 -30 0
66742 -452 21 0
66742 -452 31 0
66742 452 -21 -31 0
66742 -453 22 0
66742 -453 23 0
66742 453 -22 -23 0
66742 -454 22 0
66742 -454 24 0
66742 454 -22 -24 0
66742 -455 22 0
66742 -455 25 0
66742 455 -22 -25 0
66742 -456 22 0
66742 -456 26 0
66742 456 -22 -26 0
66742 -457 22 0
66742 -457 27 0
66742 457 -22 -27 0
66742 -458 22 0
66742 -458 28 0
66742 458 -22 -28 0
66742 -459 22 0
66742 -459 29 0
66742 459 -22 -29 0
66742 -460 22 0
66742 -460 30 0
66742 460 -22 -30 0
66742 -461 22 0
66742 -461 31 0
66742 461 -22 -31 0
66742 -462 23 0
66742 -462 24 0
66742 462 -23 -24 0
66742 -463 23 0
66742 -463 25 0
66742 463 -23 -25 0
66742 -464 23 0
66742 -464 26 0
66742 464 -23 -26 0
66742 -465 23 0
66742 -465 27 0
66742 465 -23 -27 0
66742 -466 23 0
66742 -466 28 0
66742 466 -23 -28 0
66742 -467 23 0
66742 -467 29 0
66742 467 -23 -29 0
66742 -468 23 0
66742 -468 30 0
66742 468 -23 -30 0
66742 -469 23 0
66742 -469 31 0
66742 469 -23 -31 0
66742 -470 24 0
66742 -470 25 0
66742 470 -24 -25 0
66742 -471 24 0
66742 -471 26 0
66742 471 -24 -26 0
66742 -472 24 0
66742 -472 27 0
66742 472 -24 -27 0
66742 -473 24 0
66742 -473 28 0
66742 473 -24 -28 0
66742 -474 24 0
66742 -474 29 0
66742 474 -24 -29 0
66742 -475 24 0
66742 -475 30 0
66742 475 -24 -30 0
66742 -476 24 0
66742 -476 31 0
66742 476 -24 -31 0
66742 -477 25 0
66742 -477 26 0
66742 477 -25 -26 0
66742 -478 25 0
66742 -478 27 0
66742 478 -25 -27 0
66742 -479 25 0
66742 -479 28 0
66742 479 -25 -28 0
66742 -480 25 0
66742 -480 29 0
66742 480 -25 -29 0
66742 -481 25 0
66742 -481 30 0
66742 481 -25 -30 0
66742 -482 25 0
66742 -482 31 0
66742 482 -25 -31 0
66742 -483 26 0
66742 -483 27 0
66742 483 -26 -27 0
66742 -484 26 0
66742 -484 28 0
66742 484 -26 -28 0
66742 -485 26 0
66742 -485 29 0
66742 485 -26 -29 0
66742 -486 26 0
66742 -486 30 0
66742 486 -26 -30 0
66742 -487 26 0
66742 -487 31 0
66742 487 -26 -31 0
66742 -488 27 0
66742 -488 28 0
66742 488 -27 -28 0
66742 -489 27 0
66742 -489 29 0
66742 489 -27 -29 0
66742 -490 27 0
66742 -490 30 0
66742 490 -27 -30 0
66742 -491 27 0
66742 -491 31 0
66742 491 -27 -31 0
66742 -492 28 0
66742 -492 29 0
66742 492 -28 -29 0
66742 -493 28 0
66742 -493 30 0
66742 493 -28 -30 0
66742 -494 28 0
66742 -494 31 0
66742 494 -28 -31 0
66742 -495 29 0
66742 -495 30 0
66742 495 -29 -30 0
66742 -496 29 0
66742 -496 31 0
66742 496 -29 -31 0
66742 -497 30 0
66742 -497 31 0
66742 497 -30 -31 0
58493 1 0
66732 -1 0
50364 33 0
66732 -33 0
69334 34 0
66732 -34 0
87394 35 0
66732 -35 0
77532 36 0
66732 -36 0
71832 37 0
66732 -37 0
66470 38 0
66732 -38 0
40826 39 0
66732 -39 0
68068 40 0
66732 -40 0
52962 41 0
66732 -41 0
71198 42 0
66732 -42 0
69508 43 0
66732 -43 0
68444 44 0
66732 -44 0
53164 45 0
66732 -45 0
70880 46 0
66732 -46 0
60488 47 0
66732 -47 0
47744 48 0
66732 -48 0
61542 49 0
66732 -49 0
70804 50 0
66732 -50 0
61392 51 0
66732 -51 0
75270 52 0
66732 -52 0
67414 53 0
66732 -53 0
70670 54 0
66732 -54 0
74816 55 0
66732 -55 0
62626 56 0
66732 -56 0
72632 57 0
66732 -57 0
71496 58 0
66732 -58 0
67856 59 0
66732 -59 0
70606 60 0
66732 -60 0
68434 61 0
66732 -61 0
66870 62 0
66732 -62 0
46430 2 0
66732 -2 0
66104 63 0
66732 -63 0
60366 64 0
66732 -64 0
64818 65 0
66732 -65 0
78676 66 0
66732 -66 0
72708 67 0
66732 -67 0
68038 68 0
66732 -68 0
71268 69 0
66732 -69 0
54370 70 0
66732 -70 0
68632 71 0
66732 -71 0
54762 72 0
66732 -72 0
62624 73 0
66732 -73 0
67568 74 0
66732 -74 0
77292 75 0
66732 -75 0
72692 76 0
66732 -76 0
71926 77 0
66732 -77 0
65426 78 0
66732 -78 0
72090 79 0
66732 -79 0
70116 80 0
66732 -80 0
69474 81 0
66732 -81 0
60312 82 0
66732 -82 0
68272 83 0
66732 -83 0
68902 84 0
66732 -84 0
73670 85 0
66732 -85 0
68086 86 0
66732 -86 0
65216 87 0
66732 -87 0
61036 88 0
66732 -88 0
63288 89 0
66732 -89 0
66156 90 0
66732 -90 0
64892 91 0
66732 -91 0
43164 3 0
66732 -3 0
71418 92 0
66732 -92 0
63406 93 0
66732 -93 0
56262 94 0
66732 -94 0
65786 95 0
66732 -95 0
67270 96 0
66732 -96 0
51806 97 0
66732 -97 0
64358 98 0
66732 -98 0
69336 99 0
66732 -99 0
65308 100 0
66732 -100 0
62906 101 0
66732 -101 0
68764 102 0
66732 -102 0
68502 103 0
66732 -103 0
57144 104 0
66732 -104 0
60694 105 0
66732 -105 0
62892 106 0
66732 -106 0
70452 107 0
66732 -107 0
62830 108 0
66732 -108 0
75064 109 0
66732 -109 0
67416 110 0
66732 -110 0
73822 111 0
66732 -111 0
69036 112 0
66732 -112 0
67462 113 0
66732 -113 0
62864 114 0
66732 -114 0
68596 115 0
66732 -115 0
72792 116 0
66732 -116 0
69772 117 0
66732 -117 0
65714 118 0
66732 -118 0
68526 119 0
66732 -119 0
34013 4 0
66732 -4 0
61640 120 0
66732 -120 0
76232 121 0
66732 -121 0
64132 122 0
66732 -122 0
83380 123 0
66732 -123 0
70628 124 0
66732 -124 0
65460 125 0
66732 -125 0
65372 126 0
66732 -126 0
58858 127 0
66732 -127 0
65856 128 0
66732 -128 0
78876 129 0
66732 -129 0
67942 130 0
66732 -130 0
76208 131 0
66732 -131 0
77794 132 0
66732 -132 0
64476 133 0
66732 -133 0
63626 134 0
66732 -134 0
67442 135 0
66732 -135 0
65898 136 0
66732 -136 0
56490 137 0
66732 -137 0
64146 138 0
66732 -138 0
56866 139 0
66732 -139 0
70878 140 0
66732 -140 0
69846 141 0
66732 -141 0
66364 142 0
66732 -142 0
64520 143 0
66732 -143 0
66132 144 0
66732 -144 0
64904 145 0
66732 -145 0
64800 146 0
66732 -146 0
43486 5 0
66732 -5 0
70732 147 0
66732 -147 0
74800 148 0
66732 -148 0
76846 149 0
66732 -149 0
57566 150 0
66732 -150 0
62970 151 0
66732 -151 0
72336 152 0
66732 -152 0
59566 153 0
66732 -153 0
61762 154 0
66732 -154 0
72060 155 0
66732 -155 0
70748 156 0
66732 -156 0
62942 157 0
66732 -157 0
73044 158 0
66732 -158 0
71782 159 0
66732 -159 0
65604 160 0
66732 -160 0
70580 161 0
66732 -161 0
67374 162 0
66732 -162 0
63618 163 0
66732 -163 0
65136 164 0
66732 -164 0
69410 165 0
66732 -165 0
68088 166 0
66732 -166 0
60628 167 0
66732 -167 0
64002 168 0
66732 -168 0
66842 169 0
66732 -169 0
64190 170 0
66732 -170 0
63978 171 0
66732 -171 0
67422 172 0
66732 -172 0
22219 6 0
66732 -6 0
75954 173 0
66732 -173 0
81088 174 0
66732 -174 0
69618 175 0
66732 -175 0
72142 176 0
66732 -176 0
65958 177 0
66732 -177 0
71412 178 0
66732 -178 0
65392 179 0
66732 -179 0
72944 180 0
66732 -180 0
64926 181 0
66732 -181 0
62784 182 0
66732 -182 0
70074 183 0
66732 -183 0
67348 184 0
66732 -184 0
78306 185 0
66732 -185 0
66028 186 0
66732 -186 0
66072 187 0
66732 -187 0
70986 188 0
66732 -188 0
74912 189 0
66732 -189 0
69126 190 0
66732 -190 0
71970 191 0
66732 -191 0
61714 192 0
66732 -192 0
71924 193 0
66732 -193 0
73560 194 0
66732 -194 0
70752 195 0
66732 -195 0
68776 196 0
66732 -196 0
68848 197 0
66732 -197 0
46859 7 0
66732 -7 0
62364 198 0
66732 -198 0
64450 199 0
66732 -199 0
57250 200 0
66732 -200 0
56558 201 0
66732 -201 0
62306 202 0
66732 -202 0
68816 203 0
66732 -203 0
56556 204 0
66732 -204 0
58580 205 0
66732 -205 0
70660 206 0
66732 -206 0
62468 207 0
66732 -207 0
65704 208 0
66732 -208 0
68864 209 0
66732 -209 0
64370 210 0
66732 -210 0
64590 211 0
66732 -211 0
69436 212 0
66732 -212 0
62996 213 0
66732 -213 0
73414 214 0
66732 -214 0
68188 215 0
66732 -215 0
69172 216 0
66732 -216 0
71882 217 0
66732 -217 0
66014 218 0
66732 -218 0
68310 219 0
66732 -219 0
64222 220 0
66732 -220 0
65306 221 0
66732 -221 0
87581 8 0
66732 -8 0
81046 222 0
66732 -222 0
62376 223 0
66732 -223 0
78048 224 0
66732 -224 0
84688 225 0
66732 -225 0
56720 226 0
66732 -226 0
57858 227 0
66732 -227 0
52696 228 0
66732 -228 0
51938 229 0
66732 -229 0
58526 230 0
66732 -230 0
57692 231 0
66732 -231 0
59928 232 0
66732 -232 0
55364 233 0
66732 -233 0
72156 234 0
66732 -234 0
71282 235 0
66732 -235 0
64000 236 0
66732 -236 0
74756 237 0
66732 -237 0
55556 238 0
66732 -238 0
66874 239 0
66732 -239 0
61294 240 0
66732 -240 0
69310 241 0
66732 -241 0
67240 242 0
66732 -242 0
63506 243 0
66732 -243 0
68894 244 0
66732 -244 0
36658 9 0
66732 -9 0
74098 245 0
66732 -245 0
58898 246 0
66732 -246 0
63512 247 0
66732 -247 0
64274 248 0
66732 -248 0
70190 249 0
66732 -249 0
70288 250 0
66732 -250 0
69978 251 0
66732 -251 0
61112 252 0
66732 -252 0
75938 253 0
66732 -253 0
63970 254 0
66732 -254 0
68724 255 0
66732 -255 0
67058 256 0
66732 -256 0
63178 257 0
66732 -257 0
67266 258 0
66732 -258 0
64416 259 0
66732 -259 0
62826 260 0
66732 -260 0
64616 261 0
66732 -261 0
68328 262 0
66732 -262 0
69152 263 0
66732 -263 0
67854 264 0
66732 -264 0
70142 265 0
66732 -265 0
68250 266 0
66732 -266 0
59478 10 0
66732 -10 0
61398 267 0
66732 -267 0
57670 268 0
66732 -268 0
51666 269 0
66732 -269 0
53636 270 0
66732 -270 0
68020 271 0
66732 -271 0
70020 272 0
66732 -272 0
60850 273 0
66732 -273 0
67956 274 0
66732 -274 0
62492 275 0
66732 -275 0
67484 276 0
66732 -276 0
64016 277 0
66732 -277 0
58008 278 0
66732 -278 0
62704 279 0
66732 -279 0
72382 280 0
66732 -280 0
73014 281 0
66732 -281 0
66776 282 0
66732 -282 0
65926 283 0
66732 -283 0
60074 284 0
66732 -284 0
62150 285 0
66732 -285 0
64464 286 0
66732 -286 0
64800 287 0
66732 -287 0
36716 11 0
66732 -11 0
65866 288 0
66732 -288 0
60796 289 0
66732 -289 0
58824 290 0
66732 -290 0
67492 291 0
66732 -291 0
76264 292 0
66732 -292 0
62342 293 0
66732 -293 0
70290 294 0
66732 -294 0
65580 295 0
66732 -295 0
71622 296 0
66732 -296 0
61256 297 0
66732 -297 0
69334 298 0
66732 -298 0
58002 299 0
66732 -299 0
70054 300 0
66732 -300 0
71622 301 0
66732 -301 0
66702 302 0
66732 -302 0
71204 303 0
66732 -303 0
64116 304 0
66732 -304 0
66032 305 0
66732 -305 0
64064 306 0
66732 -306 0
64984 307 0
66732 -307 0
31898 12 0
66732 -12 0
67880 308 0
66732 -308 0
66390 309 0
66732 -309 0
67524 310 0
66732 -310 0
68498 311 0
66732 -311 0
72672 312 0
66732 -312 0
64418 313 0
66732 -313 0
83124 314 0
66732 -314 0
70586 315 0
66732 -315 0
62300 316 0
66732 -316 0
66114 317 0
66732 -317 0
67648 318 0
66732 -318 0
72172 319 0
66732 -319 0
75998 320 0
66732 -320 0
61984 321 0
66732 -321 0
67308 322 0
66732 -322 0
63080 323 0
66732 -323 0
62850 324 0
66732 -324 0
64800 325 0
66732 -325 0
65536 326 0
66732 -326 0
66592 13 0
66732 -13 0
58308 327 0
66732 -327 0
54352 328 0
66732 -328 0
65592 329 0
66732 -329 0
68016 330 0
66732 -330 0
72866 331 0
66732 -331 0
59554 332 0
66732 -332 0
59588 333 0
66732 -333 0
66984 334 0
66732 -334 0
60064 335 0
66732 -335 0
63400 336 0
66732 -336 0
75394 337 0
66732 -337 0
66444 338 0
66732 -338 0
57426 339 0
66732 -339 0
61040 340 0
66732 -340 0
66316 341 0
66732 -341 0
61930 342 0
66732 -342 0
63760 343 0
66732 -343 0
68848 344 0
66732 -344 0
62893 14 0
66732 -14 0
56354 345 0
66732 -345 0
71310 346 0
66732 -346 0
55976 347 0
66732 -347 0
68498 348 0
66732 -348 0
64738 349 0
66732 -349 0
58722 350 0
66732 -350 0
74218 351 0
66732 -351 0
66506 352 0
66732 -352 0
66592 353 0
66732 -353 0
80674 354 0
66732 -354 0
64962 355 0
66732 -355 0
68826 356 0
66732 -356 0
68292 357 0
66732 -357 0
65556 358 0
66732 -358 0
67160 359 0
66732 -359 0
65540 360 0
66732 -360 0
66916 361 0
66732 -361 0
59664 15 0
66732 -15 0
63562 362 0
66732 -362 0
65590 363 0
66732 -363 0
65698 364 0
66732 -364 0
64424 365 0
66732 -365 0
55656 366 0
66732 -366 0
69876 367 0
66732 -367 0
67922 368 0
66732 -368 0
65144 369 0
66732 -369 0
80510 370 0
66732 -370 0
62202 371 0
66732 -371 0
64888 372 0
66732 -372 0
65830 373 0
66732 -373 0
69590 374 0
66732 -374 0
67818 375 0
66732 -375 0
63398 376 0
66732 -376 0
68802 377 0
66732 -377 0
53319 16 0
66732 -16 0
62184 378 0
66732 -378 0
60956 379 0
66732 -379 0
71134 380 0
66732 -380 0
62492 381 0
66732 -381 0
65320 382 0
66732 -382 0
78734 383 0
66732 -383 0
68056 384 0
66732 -384 0
68430 385 0
66732 -385 0
64976 386 0
66732 -386 0
59842 387 0
66732 -387 0
67120 388 0
66732 -388 0
73028 389 0
66732 -389 0
68384 390 0
66732 -390 0
63396 391 0
66732 -391 0
68388 392 0
66732 -392 0
64867 17 0
66732 -17 0
62244 393 0
66732 -393 0
62804 394 0
66732 -394 0
65486 395 0
66732 -395 0
76582 396 0
66732 -396 0
66258 397 0
66732 -397 0
71248 398 0
66732 -398 0
71210 399 0
66732 -399 0
58256 400 0
66732 -400 0
72654 401 0
66732 -401 0
67192 402 0
66732 -402 0
67708 403 0
66732 -403 0
69456 404 0
66732 -404 0
68828 405 0
66732 -405 0
67468 406 0
66732 -406 0
64146 18 0
66732 -18 0
75622 407 0
66732 -407 0
63818 408 0
66732 -408 0
71240 409 0
66732 -409 0
70120 410 0
66732 -410 0
69638 411 0
66732 -411 0
70796 412 0
66732 -412 0
62156 413 0
66732 -413 0
72302 414 0
66732 -414 0
65850 415 0
66732 -415 0
67974 416 0
66732 -416 0
69348 417 0
66732 -417 0
65756 418 0
66732 -418 0
67100 419 0
66732 -419 0
71113 19 0
66732 -19 0
66910 420 0
66732 -420 0
70002 421 0
66732 -421 0
56862 422 0
66732 -422 0
62092 423 0
66732 -423 0
58802 424 0
66732 -424 0
61064 425 0
66732 -425 0
71382 426 0
66732 -426 0
62372 427 0
66732 -427 0
63208 428 0
66732 -428 0
64880 429 0
66732 -429 0
67794 430 0
66732 -430 0
65950 431 0
66732 -431 0
71272 20 0
66732 -20 0
72002 432 0
66732 -432 0
66148 433 0
66732 -433 0
67872 434 0
66732 -434 0
72272 435 0
66732 -435 0
63056 436 0
66732 -436 0
68410 437 0
66732 -437 0
68634 438 0
66732 -438 0
70518 439 0
66732 -439 0
70212 440 0
66732 -440 0
65956 441 0
66732 -441 0
68020 442 0
66732 -442 0
43060 21 0
66732 -21 0
74078 443 0
66732 -443 0
54684 444 0
66732 -444 0
61988 445 0
66732 -445 0
74296 446 0
66732 -446 0
60764 447 0
66732 -447 0
68768 448 0
66732 -448 0
63896 449 0
66732 -449 0
63166 450 0
66732 -450 0
64876 451 0
66732 -451 0
65076 452 0
66732 -452 0
70361 22 0
66732 -22 0
70642 453 0
66732 -453 0
61864 454 0
66732 -454 0
64164 455 0
66732 -455 0
72292 456 0
66732 -456 0
63240 457 0
66732 -457 0
63176 458 0
66732 -458 0
65466 459 0
66732 -459 0
70270 460 0
66732 -460 0
66410 461 0
66732 -461 0
58191 23 0
66732 -23 0
67350 462 0
66732 -462 0
69050 463 0
66732 -463 0
65550 464 0
66732 -464 0
67068 465 0
66732 -465 0
62864 466 0
66732 -466 0
63868 467 0
66732 -467 0
62470 468 0
66732 -468 0
64938 469 0
66732 -469 0
54126 24 0
66732 -24 0
68562 470 0
66732 -470 0
69816 471 0
66732 -471 0
67116 472 0
66732 -472 0
65528 473 0
66732 -473 0
66812 474 0
66732 -474 0
70616 475 0
66732 -475 0
65168 476 0
66732 -476 0
74481 25 0
66732 -25 0
71506 477 0
66732 -477 0
62012 478 0
66732 -478 0
67788 479 0
66732 -479 0
68020 480 0
66732 -480 0
68892 481 0
66732 -481 0
68572 482 0
66732 -482 0
53618 26 0
66732 -26 0
64472 483 0
66732 -483 0
69480 484 0
66732 -484 0
62966 485 0
66732 -485 0
63504 486 0
66732 -486 0
68480 487 0
66732 -487 0
71628 27 0
66732 -27 0
64652 488 0
66732 -488 0
62810 489 0
66732 -489 0
66708 490 0
66732 -490 0
67836 491 0
66732 -491 0
64984 28 0
66732 -28 0
63754 492 0
66732 -492 0
66832 493 0
66732 -493 0
65168 494 0
66732 -494 0
65299 29 0
66732 -29 0
65724 495 0
66732 -495 0
66548 496 0
66732 -496 0
64361 30 0
66732 -30 0
66502 497 0
66732 -497 0
64317 31 0
66732 -31 0
